c WARNING: for repeatability, setting FPU to use double precision
d VARIABLES            20899        
d CONSTRAINTS          80419        
c ============================[ Problem Statistics ]=============================
c |                                                                             |
c |  Number of variables:         20899                                         |
c |  Number of clauses:           80419                                         |
c |  Parse time:                   0.02 s                                       |
c |                                                                             |
c ============================[ Search Statistics ]==============================
c | Conflicts |          ORIGINAL         |          LEARNT          | Progress |
c |           |    Vars  Clauses Literals |    Limit  Clauses Lit/Cl |          |
c ===============================================================================
c |       100 |   14475    61317   150146 |    22482      100     45 | 30.738 % |
c |       250 |   14475    61317   150146 |    24731      250     42 | 30.738 % |
c |       475 |   14475    61317   150146 |    27204      475     70 | 30.738 % |
c |       812 |   14475    61317   150146 |    29924      812     71 | 30.738 % |
c |      1318 |   14475    61317   150146 |    32917     1318     67 | 30.738 % |
c |      2077 |   14475    61317   150146 |    36208     2077     63 | 30.738 % |
c |      3216 |   14475    61317   150146 |    39829     3216     74 | 30.738 % |
c |      4924 |   14475    61317   150146 |    43812     4924     74 | 30.738 % |
c |      7486 |   14475    61317   150146 |    48194     7486     76 | 30.738 % |
c |     11330 |   14475    61317   150146 |    53013    11330     80 | 30.738 % |
c |     17096 |   14475    61317   150146 |    58314    17096     85 | 30.738 % |
c |     25745 |   14475    61317   150146 |    64146    25745     87 | 30.738 % |
c |     38719 |   14475    61317   150146 |    70560    38719     84 | 30.738 % |
c |     58180 |   14475    61317   150146 |    77617    58180     82 | 30.738 % |
c |     87372 |   14475    61317   150146 |    85378    20225     59 | 30.738 % |
c |    131161 |   14475    61317   150146 |    93916    64014     56 | 30.738 % |
c |    196845 |   14475    61317   150146 |   103308    50838     45 | 30.738 % |
c |    295371 |   14475    61317   150146 |   113639    62964     41 | 30.738 % |
c ===============================================================================
c restarts              : 871
c conflicts             : 362562         (6192 /sec)
c decisions             : 558558         (0.00 % random) (9540 /sec)
c propagations          : 229524144      (3920028 /sec)
c conflict literals     : 19616269       (52.04 % deleted)
d RESTARTS             871
d FAILURES             362562       
d NODES                558558       
d BACKTRACKS           558558       
d PROPAGATIONS         229524144    
d NOGOODSIZE           54.10 
d MEMORY               77.00 
d TIME                 58.5517 

s UNSATISFIABLE
